pymatgen generated KPOINTS with grid density = 2172 / atom
0
Gamma
11 11 11
