pymatgen generated KPOINTS with grid density = 1965 / atom
0
Gamma
9 6 6
