Sn2 O4
1.0
3.243221 0.000000 0.000000
0.000000 4.829335 0.000000
0.000000 0.000000 4.835337
O Sn
4 2
direct
0.500000 0.193647 0.806751 O
0.500000 0.806353 0.193249 O
0.000000 0.306353 0.306751 O
0.000000 0.693647 0.693249 O
0.500000 0.500000 0.500000 Sn
0.000000 0.000000 0.000000 Sn
