pymatgen generated KPOINTS with grid density = 1815 / atom
0
Monkhorst
4 4 4
