In16 O24
1.0
8.410710 0.000000 -2.973635
-4.205355 7.283888 -2.973635
0.000000 0.000000 8.920905
O In
24 16
direct
0.036885 0.492664 0.764747 O
0.227917 0.272138 0.735253 O
0.272083 0.007336 0.044220 O
0.227862 0.455780 0.463115 O
0.455780 0.463115 0.227862 O
0.764747 0.036885 0.492664 O
0.272138 0.735253 0.227917 O
0.044220 0.272083 0.007336 O
0.492664 0.764747 0.036885 O
0.735253 0.227917 0.272138 O
0.007336 0.044220 0.272083 O
0.463115 0.227862 0.455780 O
0.963115 0.507336 0.235253 O
0.772083 0.727862 0.264747 O
0.727917 0.992664 0.955780 O
0.772138 0.544220 0.536885 O
0.536885 0.772138 0.544220 O
0.992664 0.955780 0.727917 O
0.264747 0.772083 0.727862 O
0.507336 0.235253 0.963115 O
0.955780 0.727917 0.992664 O
0.727862 0.264747 0.772083 O
0.235253 0.963115 0.507336 O
0.544220 0.536885 0.772138 O
0.250000 0.716127 0.466127 In
0.033873 0.750000 0.783873 In
0.783873 0.033873 0.750000 In
0.466127 0.250000 0.716127 In
0.716127 0.466127 0.250000 In
0.750000 0.783873 0.033873 In
0.750000 0.283873 0.533873 In
0.966127 0.250000 0.216127 In
0.216127 0.966127 0.250000 In
0.533873 0.750000 0.283873 In
0.283873 0.533873 0.750000 In
0.250000 0.216127 0.966127 In
0.000000 0.500000 0.000000 In
0.500000 0.000000 0.000000 In
0.000000 0.000000 0.500000 In
0.500000 0.500000 0.500000 In
