pymatgen generated KPOINTS with grid density = 1048 / atom
0
Monkhorst
8 8 8
