Zn1 Se1
1.0
3.516451 0.000000 2.030224
1.172150 3.315341 2.030224
0.000000 0.000000 4.060447
Zn Se
1 1
direct
0.000000 0.000000 0.000000 Zn
0.250000 0.250000 0.250000 Se
