pymatgen generated KPOINTS with grid density = 2037 / atom
0
Monkhorst
4 4 4
