Sc16 O24
1.0
8.094394 0.000000 -2.861801
-4.047197 7.009951 -2.861801
0.000000 0.000000 8.585402
O Sc
24 16
direct
0.535552 0.772653 0.546006 O
0.989545 0.953994 0.726647 O
0.262898 0.773353 0.727347 O
0.510455 0.237102 0.964448 O
0.953994 0.726647 0.989545 O
0.727347 0.262898 0.773353 O
0.237102 0.964448 0.510455 O
0.546006 0.535552 0.772653 O
0.772653 0.546006 0.535552 O
0.726647 0.989545 0.953994 O
0.773353 0.727347 0.262898 O
0.964448 0.510455 0.237102 O
0.464448 0.227347 0.453994 O
0.010455 0.046006 0.273353 O
0.737102 0.226647 0.272653 O
0.489545 0.762898 0.035552 O
0.046006 0.273353 0.010455 O
0.272653 0.737102 0.226647 O
0.762898 0.035552 0.489545 O
0.453994 0.464448 0.227347 O
0.227347 0.453994 0.464448 O
0.273353 0.010455 0.046006 O
0.226647 0.272653 0.737102 O
0.035552 0.489545 0.762898 O
0.500000 0.500000 0.500000 Sc
0.000000 0.000000 0.500000 Sc
0.500000 0.000000 0.000000 Sc
0.000000 0.500000 0.000000 Sc
0.250000 0.213983 0.963983 Sc
0.286017 0.536017 0.750000 Sc
0.536017 0.750000 0.286017 Sc
0.213983 0.963983 0.250000 Sc
0.963983 0.250000 0.213983 Sc
0.750000 0.286017 0.536017 Sc
0.750000 0.786017 0.036017 Sc
0.713983 0.463983 0.250000 Sc
0.463983 0.250000 0.713983 Sc
0.786017 0.036017 0.750000 Sc
0.036017 0.750000 0.786017 Sc
0.250000 0.713983 0.463983 Sc
