pymatgen generated KPOINTS with grid density = 526 / atom
0
Monkhorst
6 6 6
