Ga1 Cu1 O2
1.0
2.913492 -0.002915 5.279686
1.357818 2.577746 5.279686
-0.004836 -0.002915 6.030216
O Cu Ga
2 1 1
direct
0.892107 0.892107 0.892107 O
0.107893 0.107893 0.107893 O
0.000000 0.000000 0.000000 Cu
0.500000 0.500000 0.500000 Ga
