Be1 Te1
1.0
3.470486 0.000000 2.003686
1.156829 3.272006 2.003686
0.000000 0.000000 4.007372
Be Te
1 1
direct
0.000000 0.000000 0.000000 Be
0.250000 0.250000 0.250000 Te
