pymatgen generated KPOINTS with grid density = 1132 / atom
0
Monkhorst
8 4 4
