pymatgen generated KPOINTS with grid density = 898 / atom
0
Monkhorst
8 8 8
