Ge6 N8
1.0
8.120412 -0.000000 0.000000
-4.060206 7.032483 0.000000
0.000000 0.000000 3.110056
N Ge
8 6
direct
0.666667 0.333333 0.750000 N
0.333333 0.666667 0.250000 N
0.669576 0.972326 0.750000 N
0.697250 0.669576 0.250000 N
0.972326 0.302750 0.250000 N
0.027674 0.697250 0.750000 N
0.330424 0.027674 0.250000 N
0.302750 0.330424 0.750000 N
0.828903 0.235162 0.750000 Ge
0.593741 0.828903 0.250000 Ge
0.235162 0.406259 0.250000 Ge
0.764838 0.593741 0.750000 Ge
0.406259 0.171097 0.750000 Ge
0.171097 0.764838 0.250000 Ge
