pymatgen generated KPOINTS with grid density = 354 / atom
0
Gamma
6 6 4
