pymatgen generated KPOINTS with grid density = 485 / atom
0
Monkhorst
6 6 2
