Sn4 S4
1.0
4.023972 0.000000 0.000000
0.000000 4.442511 0.000000
0.000000 0.000000 11.432652
Sn S
4 4
direct
0.250000 0.373976 0.621238 Sn
0.750000 0.626024 0.378762 Sn
0.750000 0.873976 0.878762 Sn
0.250000 0.126024 0.121238 Sn
0.250000 0.019867 0.349830 S
0.750000 0.980133 0.650170 S
0.750000 0.519867 0.150170 S
0.250000 0.480133 0.849830 S
