pymatgen generated KPOINTS with grid density = 2355 / atom
0
Gamma
13 13 4
