ALGO = All
AMIX = 0.1
EDIFF = 1e-05
ENCUT = 520
HFSCREEN = 0.2
IBRION = -1
ICHARG = 1
ISIF = 3
ISMEAR = -5
ISPIN = 2
LASPH = True
LHFCALC = True
LMAXMIX = 4
LORBIT = 11
LREAL = Auto
LWAVE = False
MAGMOM = 2*0.6
NELM = 100
NKRED = 1
NSW = 0
PREC = Accurate
PRECFOCK = Fast
SIGMA = 0.05
TIME = 0.4
