pymatgen generated KPOINTS with grid density = 1273 / atom
0
Monkhorst
8 6 6
