Cu4 O2
1.0
4.287813 0.000000 0.000000
0.000000 4.287813 0.000000
0.000000 0.000000 4.287813
O Cu
2 4
direct
0.750000 0.750000 0.750000 O
0.250000 0.250000 0.250000 O
0.500000 0.500000 0.000000 Cu
0.000000 0.500000 0.500000 Cu
0.500000 0.000000 0.500000 Cu
0.000000 0.000000 0.000000 Cu
