pymatgen generated KPOINTS with grid density = 983 / atom
0
Monkhorst
8 6 6
