pymatgen generated KPOINTS with grid density = 10437 / atom
0
Gamma
17 17 17
