pymatgen generated KPOINTS with grid density = 2363 / atom
0
Gamma
11 11 2
