pymatgen generated KPOINTS with grid density = 3131 / atom
0
Gamma
13 13 13
