ALGO = Normal
EDIFF = 1e-05
ENCUT = 520
IBRION = -1
ICHARG = 0
ISIF = 3
ISMEAR = -5
ISPIN = 2
LAECHG = True
LCHARG = True
LORBIT = 11
LREAL = Auto
LVHAR = True
LWAVE = False
MAGMOM = 2*0.6
NELM = 100
NSW = 0
PREC = Accurate
SIGMA = 0.05
