In1 As1
1.0
3.785367 0.000000 2.185482
1.261789 3.568878 2.185482
0.000000 0.000000 4.370965
As In
1 1
direct
0.000000 0.000000 0.000000 As
0.250000 0.250000 0.250000 In
