Cd1 Te1
1.0
4.059447 0.000000 2.343723
1.353149 3.827283 2.343723
0.000000 0.000000 4.687445
Cd Te
1 1
direct
0.000000 0.000000 0.000000 Cd
0.250000 0.250000 0.250000 Te
