In1 P1
1.0
3.647734 0.000000 2.106020
1.215911 3.439117 2.106020
0.000000 0.000000 4.212041
In P
1 1
direct
0.000000 0.000000 0.000000 In
0.250000 0.250000 0.250000 P
