Ca1 F2
1.0
3.377878 0.000000 1.950219
1.125959 3.184694 1.950219
0.000000 0.000000 3.900438
Ca F
1 2
direct
0.000000 0.000000 0.000000 Ca
0.750000 0.750000 0.750000 F
0.250000 0.250000 0.250000 F
