Al1 Sb1
1.0
3.817383 0.000000 2.203967
1.272461 3.599063 2.203967
0.000000 0.000000 4.407934
Al Sb
1 1
direct
0.000000 0.000000 0.000000 Al
0.250000 0.250000 0.250000 Sb
