pymatgen generated KPOINTS with grid density = 1141 / atom
0
Monkhorst
6 6 6
