In2 Cu2 S4
1.0
5.082743 0.000000 -2.260946
-1.005732 4.982246 -2.260946
0.007156 0.008745 6.859716
S Cu In
4 2 2
direct
0.904602 0.875000 0.250000 S
0.625000 0.095398 0.750000 S
0.345398 0.375000 0.250000 S
0.125000 0.654602 0.750000 S
0.250000 0.750000 0.500000 Cu
0.000000 0.000000 0.000000 Cu
0.500000 0.500000 0.000000 In
0.750000 0.250000 0.500000 In
