pymatgen generated KPOINTS with grid density = 916 / atom
0
Monkhorst
8 4 2
