pymatgen generated KPOINTS with grid density = 939 / atom
0
Monkhorst
8 8 8
