pymatgen generated KPOINTS with grid density = 971 / atom
0
Monkhorst
8 8 4
