pymatgen generated KPOINTS with grid density = 2113 / atom
0
Monkhorst
8 8 6
