Ti2 O4
1.0
3.569847 0.000000 -1.320172
-0.488215 3.536305 -1.320172
0.026090 0.029939 5.557205
O Ti
4 2
direct
0.331413 0.581413 0.162826 O
0.081413 0.831413 0.662826 O
0.918587 0.168587 0.337174 O
0.668587 0.418587 0.837174 O
0.875000 0.625000 0.250000 Ti
0.125000 0.375000 0.750000 Ti
