Zn1 S1
1.0
3.337595 0.000000 1.926961
1.112532 3.146715 1.926961
0.000000 0.000000 3.853923
S Zn
1 1
direct
0.250000 0.250000 0.250000 S
0.000000 0.000000 0.000000 Zn
