pymatgen generated KPOINTS with grid density = 1287 / atom
0
Gamma
9 9 9
