pymatgen generated KPOINTS with grid density = 1057 / atom
0
Gamma
8 8 6
