pymatgen generated KPOINTS with grid density = 770 / atom
0
Gamma
8 8 4
