In2 N2
1.0
3.583882 0.000000 0.000000
-1.791941 3.103733 0.000000
0.000000 0.000000 5.790932
In N
2 2
direct
0.666667 0.333333 0.500359 In
0.333333 0.666667 1.000359 In
0.666667 0.333333 0.879641 N
0.333333 0.666667 0.379641 N
