pymatgen generated KPOINTS with grid density = 1312 / atom
0
Monkhorst
4 4 4
