Zn24 P16
1.0
8.120691 0.000000 0.000000
0.000000 8.120691 0.000000
0.000000 0.000000 11.466590
P Zn
16 24
direct
0.250000 0.750000 0.996106 P
0.750000 0.250000 0.496106 P
0.750000 0.250000 0.003894 P
0.250000 0.750000 0.503894 P
0.250000 0.250000 0.995801 P
0.250000 0.250000 0.495801 P
0.750000 0.750000 0.004199 P
0.750000 0.750000 0.504199 P
0.504391 0.004391 0.750000 P
0.495609 0.504391 0.250000 P
0.004391 0.995609 0.250000 P
0.995609 0.495609 0.750000 P
0.495609 0.995609 0.250000 P
0.504391 0.495609 0.750000 P
0.995609 0.004391 0.750000 P
0.004391 0.504391 0.250000 P
0.250000 0.967082 0.856249 Zn
0.532918 0.250000 0.356249 Zn
0.967082 0.250000 0.356249 Zn
0.750000 0.032918 0.143751 Zn
0.750000 0.467082 0.143751 Zn
0.250000 0.532918 0.856249 Zn
0.467082 0.750000 0.643751 Zn
0.032918 0.750000 0.643751 Zn
0.250000 0.033043 0.135170 Zn
0.466957 0.250000 0.635170 Zn
0.033043 0.250000 0.635170 Zn
0.750000 0.966957 0.864830 Zn
0.750000 0.533043 0.864830 Zn
0.250000 0.466957 0.135170 Zn
0.533043 0.750000 0.364830 Zn
0.966957 0.750000 0.364830 Zn
0.250000 0.996795 0.398155 Zn
0.503205 0.250000 0.898155 Zn
0.996795 0.250000 0.898155 Zn
0.750000 0.003205 0.601845 Zn
0.750000 0.496795 0.601845 Zn
0.250000 0.503205 0.398155 Zn
0.496795 0.750000 0.101845 Zn
0.003205 0.750000 0.101845 Zn
