pymatgen generated KPOINTS with grid density = 973 / atom
0
Monkhorst
6 6 4
