In2 Cu2 Se4
1.0
5.369869 0.000000 -2.392479
-1.065940 5.263009 -2.392479
-0.001839 -0.002249 7.218390
Cu Se In
2 4 2
direct
0.000000 0.000000 0.000000 Cu
0.250000 0.750000 0.500000 Cu
0.344355 0.375000 0.250000 Se
0.905645 0.875000 0.250000 Se
0.125000 0.655645 0.750000 Se
0.625000 0.094355 0.750000 Se
0.500000 0.500000 0.000000 In
0.750000 0.250000 0.500000 In
