pymatgen generated KPOINTS with grid density = 701 / atom
0
Monkhorst
8 8 8
