Te1 Pb1
1.0
4.020987 0.000000 2.321518
1.340329 3.791023 2.321518
0.000000 0.000000 4.643036
Te Pb
1 1
direct
0.000000 0.000000 0.000000 Te
0.500000 0.500000 0.500000 Pb
