pymatgen generated KPOINTS with grid density = 908 / atom
0
Monkhorst
4 4 4
