pymatgen generated KPOINTS with grid density = 751 / atom
0
Monkhorst
8 8 8
