Sn1 Te1
1.0
3.929737 0.000000 2.268835
1.309912 3.704991 2.268835
0.000000 0.000000 4.537669
Sn Te
1 1
direct
0.000000 0.000000 0.000000 Sn
0.500000 0.500000 0.500000 Te
