In1 Sb1
1.0
4.062002 0.000000 2.345198
1.354001 3.829692 2.345198
0.000000 0.000000 4.690396
In Sb
1 1
direct
0.000000 0.000000 0.000000 In
0.250000 0.250000 0.250000 Sb
