pymatgen generated KPOINTS with grid density = 2263 / atom
0
Gamma
11 6 6
