Ga4 O6
1.0
2.991862 0.000000 -0.743948
-0.338200 5.706568 -1.360105
0.006510 0.012499 6.414190
O Ga
6 4
direct
0.495897 0.256491 0.991795 O
0.504103 0.743509 0.008205 O
0.173598 0.564294 0.347196 O
0.826402 0.435706 0.652804 O
0.836497 0.891047 0.672994 O
0.163503 0.108953 0.327006 O
0.658410 0.314082 0.316820 Ga
0.341590 0.685918 0.683180 Ga
0.089878 0.794761 0.179756 Ga
0.910122 0.205239 0.820244 Ga
