pymatgen generated KPOINTS with grid density = 672 / atom
0
Monkhorst
8 8 8
