Hg1 Te1
1.0
4.078644 0.000000 2.354806
1.359548 3.845382 2.354806
0.000000 0.000000 4.709612
Te Hg
1 1
direct
0.250000 0.250000 0.250000 Te
0.000000 0.000000 0.000000 Hg
