pymatgen generated KPOINTS with grid density = 549 / atom
0
Monkhorst
4 4 4
