pymatgen generated KPOINTS with grid density = 2333 / atom
0
Gamma
11 11 6
