pymatgen generated KPOINTS with grid density = 4345 / atom
0
Gamma
13 13 13
