C2
1.0
2.188982 0.000000 1.263809
0.729661 2.063792 1.263809
0.000000 0.000000 2.527619
C
2
direct
0.875000 0.875000 0.875000 C
0.125000 0.125000 0.125000 C
