pymatgen generated KPOINTS with grid density = 903 / atom
0
Monkhorst
8 8 8
