Cu1 I1
1.0
3.635470 0.034010 2.154478
1.243888 3.518248 2.154478
0.000000 0.000000 4.308955
Cu I
1 1
direct
0.839338 0.720221 0.720221 Cu
0.075662 0.974779 0.974779 I
