Pb1 Se1
1.0
3.813148 0.000000 2.201522
1.271049 3.595070 2.201522
0.000000 0.000000 4.403044
Se Pb
1 1
direct
0.500000 0.500000 0.500000 Se
0.000000 0.000000 0.000000 Pb
