pymatgen generated KPOINTS with grid density = 1044 / atom
0
Monkhorst
8 8 8
