Cd1 S1
1.0
3.638003 0.000000 2.100402
1.212668 3.429942 2.100402
0.000000 0.000000 4.200804
Cd S
1 1
direct
0.000000 0.000000 0.000000 Cd
0.250000 0.250000 0.250000 S
