pymatgen generated KPOINTS with grid density = 5987 / atom
0
Gamma
13 13 8
