Al4 O6
1.0
4.256773 0.000341 2.948067
1.544510 3.966687 2.948066
0.000497 0.000339 5.177956
O Al O Al O
2 2 2 2 2
direct
0.443855 0.056145 0.750001 O
0.943855 0.250001 0.556145 O
0.647904 0.647903 0.647903 Al
0.852097 0.852097 0.852097 Al
0.056144 0.750000 0.443855 O
0.750001 0.443856 0.056144 O
0.147904 0.147903 0.147903 Al
0.352097 0.352096 0.352096 Al
0.250000 0.556144 0.943855 O
0.556144 0.943856 0.249999 O
