pymatgen generated KPOINTS with grid density = 19956 / atom
0
Gamma
21 21 13
