pymatgen generated KPOINTS with grid density = 522 / atom
0
Monkhorst
6 6 6
