pymatgen generated KPOINTS with grid density = 1653 / atom
0
Monkhorst
4 2 2
