Cu96 S48
1.0
11.915827 0.000000 0.000000
0.000000 11.973636 -5.908802
0.000000 0.018995 15.134024
Cu S
96 48
direct
0.461782 0.644527 0.827595 Cu
0.398438 0.956892 0.138293 Cu
0.296647 0.755842 0.023250 Cu
0.038218 0.144527 0.827595 Cu
0.547102 0.325414 0.686724 Cu
0.586913 0.716196 0.997374 Cu
0.855125 0.561203 0.055103 Cu
0.659599 0.993303 0.552831 Cu
0.420791 0.722007 0.502738 Cu
0.749422 0.924861 0.140804 Cu
0.291421 0.569358 0.207372 Cu
0.736082 0.213962 0.639337 Cu
0.250104 0.851854 0.770773 Cu
0.399149 0.947017 0.609649 Cu
0.577223 0.842271 0.899044 Cu
0.870461 0.060973 0.071066 Cu
0.644875 0.061203 0.055103 Cu
0.697271 0.363540 0.290593 Cu
0.086913 0.783804 0.002626 Cu
0.790423 0.232787 0.477020 Cu
0.263809 0.914623 0.264831 Cu
0.934384 0.065350 0.388342 Cu
0.958176 0.326004 0.699643 Cu
0.412610 0.689595 0.131389 Cu
0.579209 0.277993 0.497262 Cu
0.763918 0.713962 0.639337 Cu
0.144875 0.438797 0.944897 Cu
0.209577 0.767213 0.522980 Cu
0.159599 0.506697 0.447169 Cu
0.390101 0.163715 0.622444 Cu
0.750104 0.648146 0.229227 Cu
0.791421 0.930642 0.792628 Cu
0.422777 0.157729 0.100956 Cu
0.749896 0.148146 0.229227 Cu
0.263918 0.786038 0.360663 Cu
0.236191 0.414623 0.264831 Cu
0.565616 0.565350 0.388342 Cu
0.249422 0.575139 0.859196 Cu
0.375601 0.484559 0.420636 Cu
0.087390 0.189595 0.131389 Cu
0.875601 0.015441 0.579364 Cu
0.538218 0.355473 0.172405 Cu
0.763809 0.585377 0.735169 Cu
0.750578 0.424861 0.140804 Cu
0.438745 0.118382 0.781921 Cu
0.236082 0.286038 0.360663 Cu
0.452898 0.674586 0.313277 Cu
0.796647 0.744158 0.976750 Cu
0.922777 0.342271 0.899044 Cu
0.629539 0.560973 0.071066 Cu
0.413087 0.283804 0.002626 Cu
0.624399 0.515441 0.579364 Cu
0.561255 0.881618 0.218079 Cu
0.079209 0.222007 0.502738 Cu
0.736191 0.085377 0.735169 Cu
0.587390 0.310405 0.868611 Cu
0.041824 0.673996 0.300357 Cu
0.047102 0.174586 0.313277 Cu
0.109899 0.663715 0.622444 Cu
0.355125 0.938797 0.944897 Cu
0.898438 0.543108 0.861707 Cu
0.541824 0.826004 0.699643 Cu
0.913087 0.216196 0.997374 Cu
0.952898 0.825414 0.686724 Cu
0.061255 0.618382 0.781921 Cu
0.601562 0.043108 0.861707 Cu
0.600851 0.052983 0.390351 Cu
0.340401 0.006697 0.447169 Cu
0.709577 0.732787 0.477020 Cu
0.703353 0.244158 0.976750 Cu
0.920791 0.777993 0.497262 Cu
0.203353 0.255842 0.023250 Cu
0.208579 0.069358 0.207372 Cu
0.290423 0.267213 0.522980 Cu
0.609899 0.836285 0.377556 Cu
0.458176 0.173996 0.300357 Cu
0.101562 0.456892 0.138293 Cu
0.961782 0.855473 0.172405 Cu
0.197271 0.136460 0.709407 Cu
0.434384 0.434650 0.611658 Cu
0.100851 0.447017 0.609649 Cu
0.912610 0.810405 0.868611 Cu
0.065616 0.934650 0.611658 Cu
0.249896 0.351854 0.770773 Cu
0.302729 0.636460 0.709407 Cu
0.938745 0.381618 0.218079 Cu
0.840401 0.493303 0.552831 Cu
0.250578 0.075139 0.859196 Cu
0.708579 0.430642 0.792628 Cu
0.370461 0.439027 0.928934 Cu
0.124399 0.984559 0.420636 Cu
0.899149 0.552983 0.390351 Cu
0.129539 0.939027 0.928934 Cu
0.890101 0.336285 0.377556 Cu
0.077223 0.657729 0.100956 Cu
0.802729 0.863540 0.290593 Cu
0.573572 0.906371 0.065999 S
0.214025 0.131380 0.551342 S
0.566701 0.146143 0.555025 S
0.081001 0.290062 0.795590 S
0.714025 0.368620 0.448658 S
0.418999 0.790062 0.795590 S
0.770915 0.080474 0.949973 S
0.235515 0.724154 0.194028 S
0.573220 0.986842 0.692154 S
0.577050 0.711489 0.211402 S
0.073572 0.593629 0.934001 S
0.738773 0.536947 0.308968 S
0.426428 0.093629 0.934001 S
0.080603 0.991865 0.276840 S
0.926780 0.486842 0.692154 S
0.084208 0.114550 0.959440 S
0.077050 0.788511 0.788598 S
0.090163 0.830681 0.444809 S
0.409837 0.330681 0.444809 S
0.229085 0.919526 0.050027 S
0.918999 0.709938 0.204410 S
0.238773 0.963053 0.691032 S
0.729085 0.580474 0.949973 S
0.264485 0.224154 0.194028 S
0.915792 0.885450 0.040560 S
0.919397 0.008135 0.723160 S
0.580603 0.508135 0.723160 S
0.066701 0.353857 0.444975 S
0.073220 0.513158 0.307846 S
0.590163 0.669319 0.555191 S
0.433299 0.853857 0.444975 S
0.922950 0.211489 0.211402 S
0.926428 0.406371 0.065999 S
0.909837 0.169319 0.555191 S
0.270915 0.419526 0.050027 S
0.584208 0.385450 0.040560 S
0.422950 0.288511 0.788598 S
0.419397 0.491865 0.276840 S
0.426780 0.013158 0.307846 S
0.415792 0.614550 0.959440 S
0.785975 0.868620 0.448658 S
0.933299 0.646143 0.555025 S
0.764485 0.275846 0.805972 S
0.261227 0.463053 0.691032 S
0.735515 0.775846 0.805972 S
0.285975 0.631380 0.551342 S
0.761227 0.036947 0.308968 S
0.581001 0.209938 0.204410 S
