pymatgen generated KPOINTS with grid density = 697 / atom
0
Monkhorst
6 6 6
