Bi2 Te3
1.0
10.696667 0.014515 0.008636
9.765337 4.365445 0.008636
9.765337 2.090302 3.832469
Bi Te
2 3
direct
0.399257 0.399257 0.399257 Bi
0.600743 0.600743 0.600743 Bi
0.211844 0.211844 0.211844 Te
0.000000 0.000000 0.000000 Te
0.788156 0.788156 0.788156 Te
