pymatgen generated KPOINTS with grid density = 1540 / atom
0
Gamma
9 9 6
