Cu2 Se1
1.0
3.538578 0.000000 2.042999
1.179526 3.336203 2.042999
0.000000 0.000000 4.085998
Cu Se
2 1
direct
0.500000 0.500000 0.500000 Cu
0.250000 0.250000 0.250000 Cu
0.000000 0.000000 0.000000 Se
