pymatgen generated KPOINTS with grid density = 1066 / atom
0
Monkhorst
6 6 4
