Zn2 Sn2 P4
1.0
5.209378 0.000000 -2.329705
-1.041876 5.104127 -2.329705
0.004525 0.005542 6.999231
P Zn Sn
4 2 2
direct
0.353448 0.375000 0.250000 P
0.125000 0.646552 0.750000 P
0.625000 0.103448 0.750000 P
0.896552 0.875000 0.250000 P
0.250000 0.750000 0.500000 Zn
0.000000 0.000000 0.000000 Zn
0.750000 0.250000 0.500000 Sn
0.500000 0.500000 0.000000 Sn
