pymatgen generated KPOINTS with grid density = 1039 / atom
0
Monkhorst
6 6 4
