Zn1 Cu2 Sn1 Se4
1.0
5.253692 0.000000 -2.355915
-1.056464 5.146374 -2.355915
0.008109 0.009942 7.053907
Cu Zn Se Sn
2 1 4 1
direct
0.250000 0.750000 0.500000 Cu
0.750000 0.250000 0.500000 Cu
0.000000 0.000000 0.000000 Zn
0.623856 0.623856 0.729600 Se
0.376144 0.894256 0.270400 Se
0.894256 0.376144 0.270400 Se
0.105744 0.105744 0.729600 Se
0.500000 0.500000 0.000000 Sn
