Ga1 Sb1
1.0
3.808383 0.000000 2.198771
1.269461 3.590578 2.198771
0.000000 0.000000 4.397542
Ga Sb
1 1
direct
0.000000 0.000000 0.000000 Ga
0.250000 0.250000 0.250000 Sb
