pymatgen generated KPOINTS with grid density = 928 / atom
0
Gamma
6 6 4
