Al1 As1
1.0
3.511194 0.000000 2.027189
1.170398 3.310385 2.027189
0.000000 0.000000 4.054377
Al As
1 1
direct
0.000000 0.000000 0.000000 Al
0.250000 0.250000 0.250000 As
