Non SCF run along symmetry lines
154
Reciprocal
0.0 0.0 0.0 1 \Gamma
0.0227272727273 0.0 0.0227272727273 1 
0.0454545454545 0.0 0.0454545454545 1 
0.0681818181818 0.0 0.0681818181818 1 
0.0909090909091 0.0 0.0909090909091 1 
0.113636363636 0.0 0.113636363636 1 
0.136363636364 0.0 0.136363636364 1 
0.159090909091 0.0 0.159090909091 1 
0.181818181818 0.0 0.181818181818 1 
0.204545454545 0.0 0.204545454545 1 
0.227272727273 0.0 0.227272727273 1 
0.25 0.0 0.25 1 
0.272727272727 0.0 0.272727272727 1 
0.295454545455 0.0 0.295454545455 1 
0.318181818182 0.0 0.318181818182 1 
0.340909090909 0.0 0.340909090909 1 
0.363636363636 0.0 0.363636363636 1 
0.386363636364 0.0 0.386363636364 1 
0.409090909091 0.0 0.409090909091 1 
0.431818181818 0.0 0.431818181818 1 
0.454545454545 0.0 0.454545454545 1 
0.477272727273 0.0 0.477272727273 1 
0.5 0.0 0.5 1 X
0.5 0.0 0.5 1 X
0.5 0.0227272727273 0.522727272727 1 
0.5 0.0454545454545 0.545454545455 1 
0.5 0.0681818181818 0.568181818182 1 
0.5 0.0909090909091 0.590909090909 1 
0.5 0.113636363636 0.613636363636 1 
0.5 0.136363636364 0.636363636364 1 
0.5 0.159090909091 0.659090909091 1 
0.5 0.181818181818 0.681818181818 1 
0.5 0.204545454545 0.704545454545 1 
0.5 0.227272727273 0.727272727273 1 
0.5 0.25 0.75 1 W
0.5 0.25 0.75 1 W
0.484375 0.265625 0.75 1 
0.46875 0.28125 0.75 1 
0.453125 0.296875 0.75 1 
0.4375 0.3125 0.75 1 
0.421875 0.328125 0.75 1 
0.40625 0.34375 0.75 1 
0.390625 0.359375 0.75 1 
0.375 0.375 0.75 1 K
0.375 0.375 0.75 1 K
0.359375 0.359375 0.71875 1 
0.34375 0.34375 0.6875 1 
0.328125 0.328125 0.65625 1 
0.3125 0.3125 0.625 1 
0.296875 0.296875 0.59375 1 
0.28125 0.28125 0.5625 1 
0.265625 0.265625 0.53125 1 
0.25 0.25 0.5 1 
0.234375 0.234375 0.46875 1 
0.21875 0.21875 0.4375 1 
0.203125 0.203125 0.40625 1 
0.1875 0.1875 0.375 1 
0.171875 0.171875 0.34375 1 
0.15625 0.15625 0.3125 1 
0.140625 0.140625 0.28125 1 
0.125 0.125 0.25 1 
0.109375 0.109375 0.21875 1 
0.09375 0.09375 0.1875 1 
0.078125 0.078125 0.15625 1 
0.0625 0.0625 0.125 1 
0.046875 0.046875 0.09375 1 
0.03125 0.03125 0.0625 1 
0.015625 0.015625 0.03125 1 
0.0 0.0 0.0 1 \Gamma
0.0 0.0 0.0 1 \Gamma
0.0263157894737 0.0263157894737 0.0263157894737 1 
0.0526315789474 0.0526315789474 0.0526315789474 1 
0.0789473684211 0.0789473684211 0.0789473684211 1 
0.105263157895 0.105263157895 0.105263157895 1 
0.131578947368 0.131578947368 0.131578947368 1 
0.157894736842 0.157894736842 0.157894736842 1 
0.184210526316 0.184210526316 0.184210526316 1 
0.210526315789 0.210526315789 0.210526315789 1 
0.236842105263 0.236842105263 0.236842105263 1 
0.263157894737 0.263157894737 0.263157894737 1 
0.289473684211 0.289473684211 0.289473684211 1 
0.315789473684 0.315789473684 0.315789473684 1 
0.342105263158 0.342105263158 0.342105263158 1 
0.368421052632 0.368421052632 0.368421052632 1 
0.394736842105 0.394736842105 0.394736842105 1 
0.421052631579 0.421052631579 0.421052631579 1 
0.447368421053 0.447368421053 0.447368421053 1 
0.473684210526 0.473684210526 0.473684210526 1 
0.5 0.5 0.5 1 L
0.5 0.5 0.5 1 L
0.508928571429 0.482142857143 0.508928571429 1 
0.517857142857 0.464285714286 0.517857142857 1 
0.526785714286 0.446428571429 0.526785714286 1 
0.535714285714 0.428571428571 0.535714285714 1 
0.544642857143 0.410714285714 0.544642857143 1 
0.553571428571 0.392857142857 0.553571428571 1 
0.5625 0.375 0.5625 1 
0.571428571429 0.357142857143 0.571428571429 1 
0.580357142857 0.339285714286 0.580357142857 1 
0.589285714286 0.321428571429 0.589285714286 1 
0.598214285714 0.303571428571 0.598214285714 1 
0.607142857143 0.285714285714 0.607142857143 1 
0.616071428571 0.267857142857 0.616071428571 1 
0.625 0.25 0.625 1 U
0.625 0.25 0.625 1 U
0.609375 0.25 0.640625 1 
0.59375 0.25 0.65625 1 
0.578125 0.25 0.671875 1 
0.5625 0.25 0.6875 1 
0.546875 0.25 0.703125 1 
0.53125 0.25 0.71875 1 
0.515625 0.25 0.734375 1 
0.5 0.25 0.75 1 W
0.5 0.25 0.75 1 W
0.5 0.265625 0.734375 1 
0.5 0.28125 0.71875 1 
0.5 0.296875 0.703125 1 
0.5 0.3125 0.6875 1 
0.5 0.328125 0.671875 1 
0.5 0.34375 0.65625 1 
0.5 0.359375 0.640625 1 
0.5 0.375 0.625 1 
0.5 0.390625 0.609375 1 
0.5 0.40625 0.59375 1 
0.5 0.421875 0.578125 1 
0.5 0.4375 0.5625 1 
0.5 0.453125 0.546875 1 
0.5 0.46875 0.53125 1 
0.5 0.484375 0.515625 1 
0.5 0.5 0.5 1 L
0.5 0.5 0.5 1 L
0.491071428571 0.491071428571 0.517857142857 1 
0.482142857143 0.482142857143 0.535714285714 1 
0.473214285714 0.473214285714 0.553571428571 1 
0.464285714286 0.464285714286 0.571428571429 1 
0.455357142857 0.455357142857 0.589285714286 1 
0.446428571429 0.446428571429 0.607142857143 1 
0.4375 0.4375 0.625 1 
0.428571428571 0.428571428571 0.642857142857 1 
0.419642857143 0.419642857143 0.660714285714 1 
0.410714285714 0.410714285714 0.678571428571 1 
0.401785714286 0.401785714286 0.696428571429 1 
0.392857142857 0.392857142857 0.714285714286 1 
0.383928571429 0.383928571429 0.732142857143 1 
0.375 0.375 0.75 1 K
0.625 0.25 0.625 1 U
0.609375 0.21875 0.609375 1 
0.59375 0.1875 0.59375 1 
0.578125 0.15625 0.578125 1 
0.5625 0.125 0.5625 1 
0.546875 0.09375 0.546875 1 
0.53125 0.0625 0.53125 1 
0.515625 0.03125 0.515625 1 
0.5 0.0 0.5 1 X
