pymatgen generated KPOINTS with grid density = 1037 / atom
0
Monkhorst
8 8 8
