pymatgen generated KPOINTS with grid density = 599 / atom
0
Gamma
6 6 4
