pymatgen generated KPOINTS with grid density = 500 / atom
0
Monkhorst
4 4 2
