In16 S24
1.0
7.569914 0.000000 -1.735962
-0.398098 7.559439 -1.735962
-0.009717 -0.010242 17.330460
In S
16 24
direct
0.295228 0.545228 0.090457 In
0.045228 0.795228 0.590457 In
0.704772 0.454772 0.909543 In
0.954772 0.204772 0.409543 In
0.813980 0.332189 0.664379 In
0.167811 0.149601 0.835621 In
0.167811 0.686020 0.835621 In
0.649601 0.667811 0.335621 In
0.186020 0.667811 0.335621 In
0.832189 0.313980 0.164379 In
0.832189 0.850399 0.164379 In
0.350399 0.332189 0.664379 In
0.500000 0.000000 0.000000 In
0.500000 0.000000 0.500000 In
0.500000 0.500000 0.500000 In
0.000000 0.000000 0.000000 In
0.935505 0.413004 0.826008 S
0.086996 0.109497 0.673992 S
0.086996 0.564495 0.673992 S
0.609497 0.586996 0.173992 S
0.064495 0.586996 0.173992 S
0.913004 0.435505 0.326008 S
0.913004 0.890503 0.326008 S
0.390503 0.413004 0.826008 S
0.590842 0.077796 0.155592 S
0.422204 0.435249 0.344408 S
0.422204 0.909158 0.344408 S
0.935249 0.922204 0.844408 S
0.409158 0.922204 0.844408 S
0.577796 0.090842 0.655592 S
0.577796 0.564751 0.655592 S
0.064751 0.077796 0.155592 S
0.258343 0.250689 0.501377 S
0.750689 0.758343 0.001377 S
0.750689 0.243034 0.001377 S
0.256966 0.749311 0.498623 S
0.741657 0.749311 0.498623 S
0.249311 0.756966 0.998623 S
0.249311 0.241657 0.998623 S
0.743034 0.250689 0.501377 S
