pymatgen generated KPOINTS with grid density = 1181 / atom
0
Monkhorst
8 8 4
