Ba2 Cu2 Se2 F2
1.0
4.263533 0.000000 0.000000
0.000000 4.263533 0.000000
0.000000 0.000000 9.246547
F Cu Se Ba
2 2 2 2
direct
0.750000 0.250000 0.500000 F
0.250000 0.750000 0.500000 F
0.250000 0.750000 0.000000 Cu
0.750000 0.250000 0.000000 Cu
0.750000 0.750000 0.151155 Se
0.250000 0.250000 0.848845 Se
0.750000 0.750000 0.672423 Ba
0.250000 0.250000 0.327577 Ba
