Zr1 O2
1.0
3.153697 0.000000 1.820788
1.051233 2.973335 1.820788
0.000000 0.000000 3.641576
O Zr
2 1
direct
0.250000 0.250000 0.250000 O
0.750000 0.750000 0.750000 O
0.000000 0.000000 0.000000 Zr
