pymatgen generated KPOINTS with grid density = 610 / atom
0
Monkhorst
6 6 4
