Zn1 Cu2 Sn1 S4
1.0
5.452913 0.000000 0.000000
0.000000 5.452913 0.000000
-2.726456 -2.726456 5.469822
Zn Cu Sn S
1 2 1 4
direct
-0.000000 -0.000000 0.000000 Zn
0.250000 0.750000 0.500000 Cu
0.750000 0.250000 0.500000 Cu
0.500000 0.500000 0.000000 Sn
0.375818 0.375818 0.267478 S
0.891660 0.891660 0.267478 S
0.108340 0.624182 0.732522 S
0.624182 0.108340 0.732522 S
