pymatgen generated KPOINTS with grid density = 1996 / atom
0
Monkhorst
6 6 4
