Ta4 O10
1.0
4.609013 0.000000 -1.749726
-0.470916 5.439121 -1.240456
-0.006490 0.061298 6.928148
O Ta
10 4
direct
0.273205 0.127567 0.409433 O
0.863772 0.372433 0.590567 O
0.726795 0.872433 0.590567 O
0.136228 0.627567 0.409433 O
0.108772 0.750000 0.000000 O
0.891228 0.250000 0.000000 O
0.662107 0.983320 0.223639 O
0.438468 0.516680 0.776361 O
0.337893 0.016680 0.776361 O
0.561532 0.483320 0.223639 O
0.612641 0.230777 0.717960 Ta
0.894681 0.269223 0.282040 Ta
0.387359 0.769223 0.282040 Ta
0.105319 0.730777 0.717960 Ta
