pymatgen generated KPOINTS with grid density = 1168 / atom
0
Gamma
4 4 8
