pymatgen generated KPOINTS with grid density = 730 / atom
0
Monkhorst
6 6 6
