Sb2 Te3
1.0
4.294355 0.032718 9.849377
2.080149 3.757065 9.849377
0.055032 0.032718 10.744705
Sb Te
2 3
direct
0.603278 0.603278 0.603278 Sb
0.396722 0.396722 0.396722 Sb
0.784625 0.784625 0.784625 Te
0.215375 0.215375 0.215375 Te
0.000000 0.000000 0.000000 Te
