pymatgen generated KPOINTS with grid density = 1056 / atom
0
Monkhorst
6 6 4
