pymatgen generated KPOINTS with grid density = 1796 / atom
0
Monkhorst
8 8 8
