pymatgen generated KPOINTS with grid density = 998 / atom
0
Gamma
8 8 6
