Mg1 O1
1.0
2.606553 0.000000 1.504894
0.868851 2.457482 1.504894
0.000000 0.000000 3.009788
O Mg
1 1
direct
0.500000 0.500000 0.500000 O
0.000000 0.000000 0.000000 Mg
