Al1 P1
1.0
3.372404 0.000000 1.947058
1.124135 3.179533 1.947058
0.000000 0.000000 3.894117
Al P
1 1
direct
0.000000 0.000000 0.000000 Al
0.250000 0.250000 0.250000 P
