Y16 O24
1.0
8.739690 0.000000 -3.089947
-4.369845 7.568794 -3.089947
0.000000 0.000000 9.269841
O Y
24 16
direct
0.031465 0.488842 0.760719 O
0.228123 0.270746 0.739281 O
0.271877 0.011158 0.042623 O
0.229254 0.457377 0.468535 O
0.457377 0.468535 0.229254 O
0.760719 0.031465 0.488842 O
0.270746 0.739281 0.228123 O
0.042623 0.271877 0.011158 O
0.488842 0.760719 0.031465 O
0.739281 0.228123 0.270746 O
0.011158 0.042623 0.271877 O
0.468535 0.229254 0.457377 O
0.968535 0.511158 0.239281 O
0.771877 0.729254 0.260719 O
0.728123 0.988842 0.957377 O
0.770746 0.542623 0.531465 O
0.531465 0.770746 0.542623 O
0.988842 0.957377 0.728123 O
0.260719 0.771877 0.729254 O
0.511158 0.239281 0.968535 O
0.957377 0.728123 0.988842 O
0.729254 0.260719 0.771877 O
0.239281 0.968535 0.511158 O
0.542623 0.531465 0.770746 O
0.250000 0.717318 0.467318 Y
0.032682 0.750000 0.782682 Y
0.782682 0.032682 0.750000 Y
0.467318 0.250000 0.717318 Y
0.717318 0.467318 0.250000 Y
0.750000 0.782682 0.032682 Y
0.750000 0.282682 0.532682 Y
0.967318 0.250000 0.217318 Y
0.217318 0.967318 0.250000 Y
0.532682 0.750000 0.282682 Y
0.282682 0.532682 0.750000 Y
0.250000 0.217318 0.967318 Y
0.000000 0.500000 0.000000 Y
0.500000 0.000000 0.000000 Y
0.000000 0.000000 0.500000 Y
0.500000 0.500000 0.500000 Y
