Ga2 Cu2 Se4
1.0
5.161195 0.000000 -2.342211
-1.062923 5.050557 -2.342211
0.022987 0.028328 6.908252
Cu Ga Se
2 2 4
direct
0.000000 0.000000 0.000000 Cu
0.250000 0.750000 0.500000 Cu
0.500000 0.500000 0.000000 Ga
0.750000 0.250000 0.500000 Ga
0.369119 0.375000 0.250000 Se
0.125000 0.630881 0.750000 Se
0.625000 0.119119 0.750000 Se
0.880881 0.875000 0.250000 Se
