pymatgen generated KPOINTS with grid density = 1182 / atom
0
Gamma
8 8 2
