Ba1 Ti1 O3
1.0
4.035583 0.000000 0.000000
0.000000 4.035583 0.000000
0.000000 0.000000 4.035583
O Ti Ba
3 1 1
direct
0.000000 0.500000 0.500000 O
0.500000 0.000000 0.500000 O
0.500000 0.500000 0.000000 O
0.500000 0.500000 0.500000 Ti
0.000000 0.000000 0.000000 Ba
