pymatgen generated KPOINTS with grid density = 1189 / atom
0
Monkhorst
8 8 8
