Ga1 P1
1.0
3.371907 0.000000 1.946771
1.123969 3.179064 1.946771
0.000000 0.000000 3.893543
P Ga
1 1
direct
0.250000 0.250000 0.250000 P
0.000000 0.000000 0.000000 Ga
