pymatgen generated KPOINTS with grid density = 571 / atom
0
Monkhorst
4 4 4
