pymatgen generated KPOINTS with grid density = 708 / atom
0
Gamma
8 8 6
