pymatgen generated KPOINTS with grid density = 2020 / atom
0
Monkhorst
8 8 8
