Sr1 Ti1 O3
1.0
3.945130 0.000000 0.000000
0.000000 3.945130 0.000000
0.000000 0.000000 3.945130
O Ti Sr
3 1 1
direct
0.500000 0.000000 0.500000 O
0.500000 0.500000 0.000000 O
0.000000 0.500000 0.500000 O
0.500000 0.500000 0.500000 Ti
0.000000 0.000000 0.000000 Sr
