pymatgen generated KPOINTS with grid density = 200 / atom
0
Gamma
4 4 4
