Sr1 F2
1.0
3.592115 0.000000 2.073908
1.197372 3.386678 2.073908
0.000000 0.000000 4.147817
F Sr
2 1
direct
0.750000 0.750000 0.750000 F
0.250000 0.250000 0.250000 F
0.000000 0.000000 0.000000 Sr
