Cd1 Se1
1.0
3.804569 0.000000 2.196569
1.268190 3.586982 2.196569
0.000000 0.000000 4.393138
Se Cd
1 1
direct
0.250000 0.250000 0.250000 Se
0.000000 0.000000 0.000000 Cd
