pymatgen generated KPOINTS with grid density = 2545 / atom
0
Gamma
11 8 8
