Ge2 O4
1.0
2.907986 0.000000 0.000000
0.000000 4.484247 0.000000
0.000000 0.000000 4.484247
O Ge
4 2
direct
0.000000 0.692956 0.692956 O
0.500000 0.807044 0.192956 O
0.000000 0.307044 0.307044 O
0.500000 0.192956 0.807044 O
0.500000 0.500000 0.500000 Ge
0.000000 0.000000 0.000000 Ge
